4 
5  22 39 54 
6  09 24 39 54 
7  06 21 36 51 
8  06 21 36 51 
9  06 21 36 51 
10  06 21 36 51 
11  06 21 36 51 
12  06 21 36 51 
13  07 24 39 54 
14  09 24 39 54 
15  08 23 38 53 
16  08 23 38 53 
17  08 23 38 53 
18  08 23 38 53 
19  07 21 36 51 
20  08 23 38 53 
21  08 23 38 53 
22  08 23 38 53 
23  09 28 45 
0 
